     Program PWSCF v.7.0 starts on 14Nov2022 at 16:33: 8

     Waiting for input...
     Reading input from standard input

     Current dimensions of program PWSCF are:
     Max number of different atomic species (ntypx) = 10
     Max number of k-points (npk) =  40000
     Max angular momentum in pseudopotentials (lmaxx) =  4
     file O.pbesol-n-kjpaw_psl.0.1.UPF: wavefunction(s)  2P renormalized
     Message from routine setup:
     using ibrav=0 with symmetry is DISCOURAGED, use correct ibrav instead

     Subspace diagonalization in iterative solution of the eigenvalue problem:
     a serial algorithm will be used

     Using Slab Decomposition

     bravais-lattice index     =            0
     lattice parameter (alat)  =       5.6110  a.u.
     unit-cell volume          =     433.8638 (a.u.)^3
     number of atoms/cell      =            6
     number of atomic types    =            2
     number of electrons       =        48.00
     number of Kohn-Sham states=           29
     kinetic-energy cutoff     =      50.0000  Ry
     charge density cutoff     =     400.0000  Ry
     scf convergence threshold =      1.2E-09
     mixing beta               =       0.4000
     number of iterations used =            8  local-TF  mixing
     Exchange-correlation= SLA  PW   PSX  PSC
                           (   1   4  10   8   0   0   0)

     celldm(1)=   5.610980  celldm(2)=   0.000000  celldm(3)=   0.000000
     celldm(4)=   0.000000  celldm(5)=   0.000000  celldm(6)=   0.000000

     crystal axes: (cart. coord. in units of alat)
               a(1) = (  -0.000000  -0.000000   1.000000 )
               a(2) = (   1.567179  -0.000000   0.000000 )
               a(3) = (   0.000000   1.567179   0.000000 )

     reciprocal axes: (cart. coord. in units 2 pi/alat)
               b(1) = ( -0.000000  0.000000  1.000000 )
               b(2) = (  0.638089 -0.000000  0.000000 )
               b(3) = (  0.000000  0.638089  0.000000 )

     PseudoPot. # 1 for O  read from file:
     ../pseudo/O.pbesol-n-kjpaw_psl.0.1.UPF
     MD5 check sum: 7098f27aa49fc7ac8e826d9ae6d6b4ba
     Pseudo is Projector augmented-wave + core cor, Zval =  6.0
     Generated using "atomic" code by A. Dal Corso  v.6.0 svn rev. 13079
     Shape of augmentation charge: BESSEL
     Using radial grid of 1095 points,  4 beta functions with:
                l(1) =   0
                l(2) =   0
                l(3) =   1
                l(4) =   1
     Q(r) pseudized with 0 coefficients

     PseudoPot. # 2 for Ti read from file:
     ../pseudo/ti_pbesol_v1.4.uspp.F.UPF
     MD5 check sum: 25344d407123bf74e0295af7643a8957
     Pseudo is Ultrasoft + core correction, Zval = 12.0
     Generated by new atomic code, or converted to UPF format
     Using radial grid of  851 points,  6 beta functions with:
                l(1) =   0
                l(2) =   0
                l(3) =   1
                l(4) =   1
                l(5) =   2
                l(6) =   2
     Q(r) pseudized with  6 coefficients,  rinner =    1.000   1.000   1.000
                                                       1.000   1.000

     atomic species   valence    mass     pseudopotential
        O              6.00    15.99940     O ( 1.00)
        Ti            12.00    47.86700     Ti( 1.00)

     16 Sym. Ops., with inversion, found ( 8 have fractional translation)

   Cartesian axes

     site n.     atom                  positions (alat units)
         1           Ti  tau(   1) = (   0.7835894   0.7835894   0.5000000  )
         2           Ti  tau(   2) = (   0.0000000   0.0000000   0.0000000  )
         3           O   tau(   3) = (   0.3062581   1.2609207   0.5000000  )
         4           O   tau(   4) = (   1.2609207   0.3062581   0.5000000  )
         5           O   tau(   5) = (   0.4773313   0.4773313   0.0000000  )
         6           O   tau(   6) = (   1.0898475   1.0898475   0.0000000  )

     number of k points=    40  Methfessel-Paxton smearing, width (Ry)=  0.0220
                       cart. coord. in units 2pi/alat
        k(    1) = (   0.0000000   0.0000000   0.0000000), wk =   0.0058309
        k(    2) = (   0.0000000   0.0911556   0.0000000), wk =   0.0233236
        k(    3) = (   0.0000000   0.1823112   0.0000000), wk =   0.0233236
        k(    4) = (   0.0000000   0.2734668   0.0000000), wk =   0.0233236
        k(    5) = (   0.0911556   0.0911556   0.0000000), wk =   0.0233236
        k(    6) = (   0.0911556   0.1823112   0.0000000), wk =   0.0466472
        k(    7) = (   0.0911556   0.2734668   0.0000000), wk =   0.0466472
        k(    8) = (   0.1823112   0.1823112   0.0000000), wk =   0.0233236
        k(    9) = (   0.1823112   0.2734668   0.0000000), wk =   0.0466472
        k(   10) = (   0.2734668   0.2734668   0.0000000), wk =   0.0233236
        k(   11) = (   0.0000000   0.0000000   0.1428571), wk =   0.0116618
        k(   12) = (   0.0000000   0.0911556   0.1428571), wk =   0.0466472
        k(   13) = (   0.0000000   0.1823112   0.1428571), wk =   0.0466472
        k(   14) = (   0.0000000   0.2734668   0.1428571), wk =   0.0466472
        k(   15) = (   0.0911556   0.0911556   0.1428571), wk =   0.0466472
        k(   16) = (   0.0911556   0.1823112   0.1428571), wk =   0.0932945
        k(   17) = (   0.0911556   0.2734668   0.1428571), wk =   0.0932945
        k(   18) = (   0.1823112   0.1823112   0.1428571), wk =   0.0466472
        k(   19) = (   0.1823112   0.2734668   0.1428571), wk =   0.0932945
        k(   20) = (   0.2734668   0.2734668   0.1428571), wk =   0.0466472
        k(   21) = (   0.0000000   0.0000000   0.2857143), wk =   0.0116618
        k(   22) = (   0.0000000   0.0911556   0.2857143), wk =   0.0466472
        k(   23) = (   0.0000000   0.1823112   0.2857143), wk =   0.0466472
        k(   24) = (   0.0000000   0.2734668   0.2857143), wk =   0.0466472
        k(   25) = (   0.0911556   0.0911556   0.2857143), wk =   0.0466472
        k(   26) = (   0.0911556   0.1823112   0.2857143), wk =   0.0932945
        k(   27) = (   0.0911556   0.2734668   0.2857143), wk =   0.0932945
        k(   28) = (   0.1823112   0.1823112   0.2857143), wk =   0.0466472
        k(   29) = (   0.1823112   0.2734668   0.2857143), wk =   0.0932945
        k(   30) = (   0.2734668   0.2734668   0.2857143), wk =   0.0466472
        k(   31) = (   0.0000000   0.0000000   0.4285714), wk =   0.0116618
        k(   32) = (   0.0000000   0.0911556   0.4285714), wk =   0.0466472
        k(   33) = (   0.0000000   0.1823112   0.4285714), wk =   0.0466472
        k(   34) = (   0.0000000   0.2734668   0.4285714), wk =   0.0466472
        k(   35) = (   0.0911556   0.0911556   0.4285714), wk =   0.0466472
        k(   36) = (   0.0911556   0.1823112   0.4285714), wk =   0.0932945
        k(   37) = (   0.0911556   0.2734668   0.4285714), wk =   0.0932945
        k(   38) = (   0.1823112   0.1823112   0.4285714), wk =   0.0466472
        k(   39) = (   0.1823112   0.2734668   0.4285714), wk =   0.0932945
        k(   40) = (   0.2734668   0.2734668   0.4285714), wk =   0.0466472

     Check: negative core charge=   -0.000007
     Cannot read rho : file not found

     Initial potential from superposition of free atoms

     starting charge      45.9999, renormalised to      48.0000

     negative rho (up, down):  1.635E-03 0.000E+00
     Starting wfcs are   36 randomized atomic wfcs
     Checking if some PAW data can be deallocated...

     Self-consistent Calculation

     iteration #  1     ecut=    50.00 Ry     beta= 0.40
     Davidson diagonalization with overlap
     ethr =  1.00E-05,  avg # of iterations = 10.2

     negative rho (up, down):  1.912E-03 0.000E+00

     total energy              =    -403.71647430 Ry
     estimated scf accuracy    <       1.14292276 Ry

[...]

     total energy              =    -403.72874230 Ry
     estimated scf accuracy    <          9.9E-09 Ry

     iteration # 15     ecut=    50.00 Ry     beta= 0.40
     Davidson diagonalization with overlap
     ethr =  2.06E-11,  avg # of iterations =  4.0

[...]

     End of self-consistent calculation

          k = 0.0000 0.0000 0.0000 (  2577 PWs)   bands (ev):

   -48.1110 -48.0961 -24.5188 -24.5188 -24.3693 -24.3693 -24.3302 -24.3006
    -9.4198  -8.2663  -7.5907  -7.5907   2.8808   3.3571   3.7863   4.8840
     4.8840   6.0367   6.0367   6.6741   7.9076   8.1365   8.1365   8.5827
    10.3657  10.6202  10.9297  11.0132  11.0132

[...]

          k = 0.2735 0.2735 0.4286 (  2583 PWs)   bands (ev):

   -48.0664 -48.0663 -24.7283 -24.7268 -24.4009 -24.3981 -24.3643 -24.3635
    -8.1948  -8.1281  -7.9309  -7.8615   3.8191   3.9721   4.1069   4.2233
     5.0728   5.2107   5.9393   5.9655   7.2166   7.2777   7.7808   7.8636
    10.9446  11.1815  11.6253  11.6834  11.7069

     the Fermi energy is     9.4460 ev

!    total energy              =    -403.72874230 Ry
     estimated scf accuracy    <          2.3E-10 Ry
     smearing contrib. (-TS)   =       0.00000051 Ry
     internal energy E=F+TS    =    -403.72874280 Ry

     The total energy is F=E-TS. E is the sum of the following terms:
     one-electron contribution =    -127.42223284 Ry
     hartree contribution      =      86.54659276 Ry
     xc contribution           =     -64.91738447 Ry
     ewald contribution        =    -261.50751559 Ry
     one-center paw contrib.   =     -36.42820267 Ry

     convergence has been achieved in  15 iterations

     negative rho (up, down):  1.549E-03 0.000E+00

     Forces acting on atoms (cartesian axes, Ry/au):

     atom    1 type  2   force =     0.00000000    0.00000000   -0.00000000
     atom    2 type  2   force =     0.00000000    0.00000000    0.00000000
     atom    3 type  1   force =    -0.00461427    0.00461427    0.00000000
     atom    4 type  1   force =     0.00461427   -0.00461427    0.00000000
     atom    5 type  1   force =     0.00461427    0.00461427    0.00000000
     atom    6 type  1   force =    -0.00461427   -0.00461427    0.00000000

     Total force =     0.013051     Total SCF correction =     0.000003

     Computing stress (Cartesian axis) and pressure

     negative rho (up, down):  1.549E-03 0.000E+00
          total   stress  (Ry/bohr**3)                   (kbar)     P=      -83.57
  -0.00053543   0.00000000   0.00000000          -78.76        0.00        0.00
   0.00000000  -0.00053543   0.00000000            0.00      -78.76        0.00
   0.00000000   0.00000000  -0.00063339            0.00        0.00      -93.18

     Writing all to output data dir ../tmp/tio.save/

     General routines

     Parallel routines

   This run was terminated on:  16:34:14  14Nov2022

   JOB DONE.